unsat
((set-logic NIA)
(declare-fun r!1 () Int)
(declare-fun q!3 () Int)
(declare-fun s!0 () Int)
(declare-fun p!5 () Int)
(declare-fun a!4 () Int)
(declare-fun b!2 () Int)
(proof
(let ((?x2478 (* q!3 r!1)))
 (let ((?x41 (* q00 r00)))
 (let ((?x2261 (* (- 1) ?x41)))
 (let ((?x37 (* p00 s00)))
 (let ((?x852 (+ ?x37 ?x2261 (* (- 1) (* p!5 s!0)) ?x2478)))
 (let (($x2076 (>= ?x852 0)))
 (let (($x857 (= ?x852 0)))
 (let ((?x2576 (* b!2 a!4 a!4 a!4 p!5 r!1 r!1 r!1 r!1 r!1 r!1)))
 (let ((?x2571 (* a!4 a!4 a!4 a!4 p!5 r!1 r!1 r!1 r!1 r!1 r!1)))
 (let ((?x2555 (* (- 1) (* b!2 b!2 a!4 p!5 p!5 p!5))))
 (let ((?x2599 (* (- 1) (* b!2 a!4 p!5 p!5 s!0 s!0))))
 (let ((?x1972 (* b!2 q!3 p!5 p!5 p!5 s!0 s!0 s!0)))
 (let ((?x1957 (* b!2 q!3 a!4 a!4 a!4 s!0 s!0 s!0 r!1 r!1 r!1)))
 (let ((?x1857 (* b!2 a!4 a!4 a!4 p!5 s!0 s!0 r!1 r!1 r!1 r!1)))
 (let ((?x1783 (* q!3 a!4 a!4 a!4 a!4 s!0 s!0 r!1 r!1 r!1 r!1)))
 (let ((?x1678 (* q!3 a!4 a!4 a!4 a!4 s!0 s!0 s!0 r!1 r!1 r!1)))
 (let ((?x1602 (* a!4 a!4 a!4 a!4 p!5 s!0 s!0 r!1 r!1 r!1 r!1)))
 (let ((?x1467 (* b!2 a!4 a!4 a!4 p!5 s!0 r!1 r!1 r!1 r!1 r!1)))
 (let ((?x1452 (* b!2 b!2 q!3 a!4 a!4 a!4 p!5 s!0 s!0)))
 (let ((?x671 (* b!2 a!4 a!4 a!4 p!5 s!0 s!0 s!0 r!1 r!1 r!1)))
 (let ((?x326 (* b!2 q!3 a!4 a!4 a!4 r!1 r!1 r!1 r!1 r!1 r!1)))
 (let ((?x227 (* b!2 q!3 a!4 a!4 a!4 s!0 s!0 r!1 r!1 r!1 r!1)))
 (let ((?x223 (* a!4 a!4 a!4 a!4 p!5 s!0 s!0 s!0 r!1 r!1 r!1)))
 (let ((?x210 (* b!2 q!3 a!4 a!4 a!4 s!0 r!1 r!1 r!1 r!1 r!1)))
 (let ((?x202 (* q!3 a!4 a!4 a!4 a!4 s!0 r!1 r!1 r!1 r!1 r!1)))
 (let ((?x196 (* a!4 a!4 a!4 a!4 p!5 s!0 r!1 r!1 r!1 r!1 r!1)))
 (let ((?x161 (* q!3 a!4 a!4 a!4 a!4 r!1 r!1 r!1 r!1 r!1 r!1)))
 (let ((?x1726 (+ ?x161 (* 3 ?x196) (* (- 3) ?x202) (* b!2 b!2 q!3 a!4 a!4 a!4 p!5 r!1 r!1) (* 3 ?x210) ?x223 (* (- 3) ?x227) (* 2 (* a!4 a!4 a!4 a!4 a!4 p!5 p!5 s!0 r!1)) (* (- 4) (* b!2 a!4 a!4 a!4 a!4 p!5 p!5 s!0 r!1)) (* (- 1) ?x326) (* (- 2) (* b!2 q!3 a!4 a!4 a!4 a!4 p!5 r!1 r!1)) (* 2 (* b!2 a!4 a!4 p!5 p!5 p!5)) (* (- 2) (* a!4 a!4 p!5 p!5 s!0 r!1)) (* q!3 a!4 a!4 a!4 a!4 a!4 p!5 r!1 r!1) (* (- 1) ?x671) (* 2 (* b!2 a!4 a!4 a!4 a!4 p!5 p!5 s!0 s!0)) (* (- 2) (* q!3 a!4 a!4 a!4 a!4 a!4 p!5 s!0 r!1)) (* 2 (* b!2 b!2 a!4 a!4 a!4 p!5 p!5 s!0 r!1)) (* 4 (* b!2 q!3 a!4 a!4 a!4 a!4 p!5 s!0 r!1)) (* (- 2) (* b!2 b!2 q!3 a!4 a!4 a!4 p!5 s!0 r!1)) (* (- 1) (* a!4 a!4 a!4 a!4 a!4 p!5 p!5 s!0 s!0)) (* (- 1) (* b!2 b!2 a!4 a!4 a!4 p!5 p!5 r!1 r!1)) (* a!4 a!4 p!5 p!5 s!0 s!0) (* q!3 a!4 p!5 p!5 p!5 r!1 r!1 r!1) ?x1452 (* (- 3) ?x1467) (* a!4 a!4 p!5 p!5 r!1 r!1) (* (- 1) (* b!2 b!2 a!4 a!4 a!4 p!5 p!5 s!0 s!0)) (* (- 3) ?x1602) (* (- 1) ?x1678) (* 2 (* b!2 a!4 a!4 a!4 a!4 p!5 p!5 r!1 r!1)) (* 3 ?x1783) (* (- 1) (* a!4 p!5 p!5 p!5 p!5 r!1 r!1 r!1)) (* 3 (* a!4 p!5 p!5 p!5 p!5 s!0 r!1 r!1)) (* 3 ?x1857) (* (- 1) (* a!4 a!4 a!4 a!4 a!4 p!5 p!5 r!1 r!1)) ?x1957 ?x1972 (* b!2 p!5 p!5 p!5 p!5 r!1 r!1 r!1) (* (- 1) (* b!2 q!3 p!5 p!5 p!5 r!1 r!1 r!1)) (* (- 3) (* b!2 p!5 p!5 p!5 p!5 s!0 r!1 r!1)) (* (- 3) (* q!3 a!4 p!5 p!5 p!5 s!0 r!1 r!1)) (* 3 (* b!2 q!3 p!5 p!5 p!5 s!0 r!1 r!1)) (* (- 3) (* a!4 p!5 p!5 p!5 p!5 s!0 s!0 r!1)) (* 3 (* b!2 p!5 p!5 p!5 p!5 s!0 s!0 r!1)) (* 3 (* q!3 a!4 p!5 p!5 p!5 s!0 s!0 r!1)) (* (- 3) (* b!2 q!3 p!5 p!5 p!5 s!0 s!0 r!1)) (* (- 1) (* b!2 a!4 p!5 p!5 r!1 r!1)) (* 2 (* b!2 a!4 p!5 p!5 s!0 r!1)) (* a!4 p!5 p!5 p!5 p!5 s!0 s!0 s!0) ?x2599 ?x2555 (* (- 1) (* b!2 p!5 p!5 p!5 p!5 s!0 s!0 s!0)) (* (- 1) (* q!3 a!4 p!5 p!5 p!5 s!0 s!0 s!0)) (* (- 1) ?x2571) ?x2576 (* q!3 a!4 a!4 a!4 a!4 a!4 p!5 s!0 s!0) (* (- 1) (* a!4 a!4 a!4 p!5 p!5 p!5)) (* (- 2) (* b!2 q!3 a!4 a!4 a!4 a!4 p!5 s!0 s!0)))))
 (let ((?x2497 (* (- 1) ?x2478)))
 (let ((?x2233 (* p!5 s!0)))
 (let ((?x149 (* (- 1) ?x37)))
 (let ((?x1257 (+ ?x149 ?x41 ?x2233 ?x2497)))
 (let ((?x1037 (* ?x1257 ?x1726)))
 (let (($x1992 (= ?x1037 0)))
 (let ((?x2048 (* b!2 b!2 b!2 q!3 a!4 s!0 s!0 s!0 s!0 s!0 s!0)))
 (let ((?x2040 (* b!2 q!3 a!4 a!4 a!4 s!0 s!0 s!0 s!0 s!0 s!0)))
 (let ((?x2031 (* b!2 b!2 b!2 b!2 q!3 s!0 s!0 s!0 s!0 s!0 r!1)))
 (let ((?x2028 (* b!2 b!2 b!2 q!3 a!4 s!0 s!0 s!0 s!0 s!0 r!1)))
 (let ((?x2006 (* b!2 b!2 b!2 b!2 q!3 s!0 s!0 s!0 s!0 r!1 r!1)))
 (let ((?x2000 (* b!2 b!2 q!3 a!4 a!4 s!0 s!0 s!0 s!0 r!1 r!1)))
 (let ((?x1995 (* b!2 q!3 a!4 a!4 a!4 s!0 s!0 s!0 s!0 r!1 r!1)))
 (let ((?x1985 (* b!2 b!2 b!2 q!3 a!4 s!0 s!0 s!0 r!1 r!1 r!1)))
 (let ((?x1983 (* b!2 b!2 q!3 a!4 a!4 s!0 s!0 s!0 r!1 r!1 r!1)))
 (let ((?x1842 (* b!2 b!2 q!3 a!4 a!4 s!0 s!0 s!0 s!0 s!0 r!1)))
 (let ((?x1841 (* b!2 q!3 a!4 a!4 a!4 s!0 s!0 s!0 s!0 s!0 r!1)))
 (let ((?x1839 (* b!2 b!2 b!2 q!3 a!4 s!0 s!0 s!0 s!0 r!1 r!1)))
 (let ((?x1448 (* b!2 b!2 b!2 b!2 q!3 s!0 s!0 s!0 s!0 s!0 s!0)))
 (let ((?x1406 (* b!2 b!2 q!3 a!4 a!4 s!0 s!0 s!0 s!0 s!0 s!0)))
 (let ((?x1405 (* b!2 b!2 b!2 b!2 q!3 s!0 s!0 s!0 r!1 r!1 r!1)))
 (let ((?x205 (+ (* 2 (* b!2 q!3 a!4 p!5 s!0 s!0)) (* (- 2) (* b!2 b!2 q!3 p!5 s!0 s!0)) (* b!2 b!2 q!3 q!3 s!0 s!0) (* (- 1) (* b!2 q!3 q!3 a!4 s!0 s!0)) (* (- 1) ?x1405) (* 3 ?x1406) (* (- 1) (* b!2 b!2 b!2 q!3 q!3 q!3)) ?x1448 ?x1452 (* (- 1) (* b!2 b!2 q!3 q!3 a!4 a!4 a!4 s!0 s!0)) (* (- 3) (* b!2 b!2 q!3 q!3 a!4 p!5)) (* (- 9) ?x1839) (* 3 ?x1841) (* (- 9) ?x1842) (* (- 3) (* b!2 b!2 b!2 q!3 a!4 a!4 p!5 s!0 s!0)) (* (- 1) (* b!2 q!3 q!3 q!3 q!3 s!0 s!0 s!0)) ?x1957 (* (- 3) (* b!2 q!3 q!3 p!5 p!5 s!0 s!0 s!0)) (* 3 (* b!2 q!3 q!3 q!3 p!5 s!0 s!0 s!0)) ?x1972 (* (- 3) ?x1983) (* 3 ?x1985) (* (- 3) ?x1995) (* 9 ?x2000) (* 3 ?x2006) (* 9 ?x2028) (* (- 3) ?x2031) (* (- 1) ?x2040) (* (- 3) ?x2048) (* 3 (* b!2 b!2 b!2 b!2 q!3 a!4 p!5 s!0 s!0)) (* (- 1) (* b!2 b!2 b!2 b!2 b!2 q!3 p!5 s!0 s!0)) (* 3 (* b!2 b!2 b!2 q!3 q!3 a!4 a!4 s!0 s!0)) (* (- 3) (* b!2 b!2 b!2 b!2 q!3 q!3 a!4 s!0 s!0)) (* 3 (* b!2 b!2 q!3 a!4 p!5 p!5)) ?x2599 (* b!2 b!2 b!2 b!2 b!2 q!3 q!3 s!0 s!0) ?x2555 (* b!2 b!2 b!2 p!5 p!5 p!5) (* (- 3) (* b!2 b!2 b!2 q!3 p!5 p!5)) (* 3 (* b!2 b!2 b!2 q!3 q!3 p!5)) (* b!2 b!2 q!3 q!3 q!3 a!4) (* b!2 b!2 p!5 p!5 s!0 s!0))))
 (let ((?x213 (* ?x1257 ?x205)))
 (let (($x1433 (= ?x213 0)))
 (let (($x217 (not $x1433)))
 (let (($x1999 (or $x217 (not $x1992))))
 (let ((?x1835 (+ (* q00 r00 b!2) (* (- 1) (* p00 s00 b!2)) (* p00 b00 s!0) (* (- 1) (* r00 b00 q!3)) (* s00 a00 q!3) (* (- 1) (* q00 a00 s!0)))))
 (let ((?x1936 (+ (* s00 a00 p!5) (* (- 1) (* p00 s00 a!4)) (* (- 1) (* r00 b00 p!5)) (* q00 r00 a!4) (* p00 b00 r!1) (* (- 1) (* q00 a00 r!1)))))
 (let ((?x144 (* q00 a00)))
 (let ((?x1929 (+ ?x144 (* (- 1) (* p00 b00)) (* (- 1) (* q!3 a!4)) (* b!2 p!5))))
 (let ((?x504 (* b!2 r!1)))
 (let ((?x140 (* s00 a00)))
 (let (($x2485 (= (+ ?x140 (* (- 1) (* r00 b00)) (* (- 1) (* a!4 s!0)) ?x504) 0)))
 (let (($x1101 (and $x857 $x2485 (= ?x1929 0) (= ?x1936 0) (= ?x1835 0) $x1999)))
 (let ((?x127 (* a!4 a!4 a!4 a!4 q!3 r!1 r!1 r!1 s!0 s!0 s!0)))
 (let ((?x2563 (* p!5 a!4 a!4 a!4 b!2 r!1 r!1 r!1 s!0 s!0 s!0)))
 (let ((?x441 (* p!5 a!4 a!4 a!4 a!4 r!1 r!1 r!1 s!0 s!0 s!0)))
 (let ((?x552 (* a!4 a!4 a!4 q!3 b!2 r!1 r!1 r!1 r!1 s!0 s!0)))
 (let ((?x548 (* a!4 a!4 a!4 a!4 q!3 r!1 r!1 r!1 r!1 s!0 s!0)))
 (let ((?x544 (* p!5 a!4 a!4 a!4 b!2 r!1 r!1 r!1 r!1 s!0 s!0)))
 (let ((?x547 (* p!5 a!4 a!4 a!4 a!4 r!1 r!1 r!1 r!1 s!0 s!0)))
 (let ((?x542 (* a!4 a!4 a!4 q!3 b!2 r!1 r!1 r!1 r!1 r!1 s!0)))
 (let ((?x2015 (* a!4 a!4 a!4 a!4 q!3 r!1 r!1 r!1 r!1 r!1 s!0)))
 (let ((?x537 (* p!5 a!4 a!4 a!4 b!2 r!1 r!1 r!1 r!1 r!1 s!0)))
 (let ((?x539 (* p!5 a!4 a!4 a!4 a!4 r!1 r!1 r!1 r!1 r!1 s!0)))
 (let ((?x533 (* a!4 a!4 a!4 q!3 b!2 r!1 r!1 r!1 r!1 r!1 r!1)))
 (let ((?x532 (* a!4 a!4 a!4 a!4 q!3 r!1 r!1 r!1 r!1 r!1 r!1)))
 (let ((?x450 (* p!5 a!4 a!4 a!4 b!2 r!1 r!1 r!1 r!1 r!1 r!1)))
 (let ((?x875 (* p!5 a!4 a!4 a!4 a!4 r!1 r!1 r!1 r!1 r!1 r!1)))
 (let ((?x1687 (* (- 1) (* p!5 p!5 a!4 b!2 s!0 s!0))))
 (let ((?x207 (* (- 1) (* p!5 p!5 p!5 a!4 b!2 b!2))))
 (let ((?x670 (* p!5 a!4 a!4 a!4 q!3 b!2 b!2 s!0 s!0)))
 (let ((?x2026 (* a!4 a!4 a!4 q!3 b!2 r!1 r!1 r!1 s!0 s!0 s!0)))
 (let ((?x1883 (* p!5 p!5 p!5 q!3 b!2 s!0 s!0 s!0)))
 (let ((?x1556 (+ ?x1883 ?x2026 ?x670 ?x207 ?x1687 (* (- 1) (* p!5 p!5 p!5 p!5 a!4 r!1 r!1 r!1)) (* p!5 p!5 p!5 p!5 b!2 r!1 r!1 r!1) (* p!5 p!5 p!5 a!4 q!3 r!1 r!1 r!1) (* (- 1) (* p!5 p!5 p!5 q!3 b!2 r!1 r!1 r!1)) (* 3 (* p!5 p!5 p!5 p!5 a!4 r!1 r!1 s!0)) (* (- 3) (* p!5 p!5 p!5 p!5 b!2 r!1 r!1 s!0)) (* (- 3) (* p!5 p!5 p!5 a!4 q!3 r!1 r!1 s!0)) (* 3 (* p!5 p!5 p!5 q!3 b!2 r!1 r!1 s!0)) (* (- 3) (* p!5 p!5 p!5 p!5 a!4 r!1 s!0 s!0)) (* 3 (* p!5 p!5 p!5 p!5 b!2 r!1 s!0 s!0)) (* 3 (* p!5 p!5 p!5 a!4 q!3 r!1 s!0 s!0)) (* (- 3) (* p!5 p!5 p!5 q!3 b!2 r!1 s!0 s!0)) (* p!5 p!5 p!5 p!5 a!4 s!0 s!0 s!0) (* (- 1) (* p!5 p!5 p!5 p!5 b!2 s!0 s!0 s!0)) (* (- 1) (* p!5 p!5 p!5 a!4 q!3 s!0 s!0 s!0)) (* (- 1) ?x875) ?x450 ?x532 (* (- 1) ?x533) (* 3 ?x539) (* (- 3) ?x537) (* (- 3) ?x2015) (* 3 ?x542) (* (- 3) ?x547) (* 3 ?x544) (* 3 ?x548) (* (- 3) ?x552) ?x441 (* (- 1) ?x2563) (* (- 1) ?x127) (* (- 1) (* p!5 p!5 a!4 a!4 a!4 a!4 a!4 r!1 r!1)) (* 2 (* p!5 p!5 a!4 a!4 a!4 a!4 b!2 r!1 r!1)) (* (- 1) (* p!5 p!5 a!4 a!4 a!4 b!2 b!2 r!1 r!1)) (* p!5 a!4 a!4 a!4 a!4 a!4 q!3 r!1 r!1) (* (- 2) (* p!5 a!4 a!4 a!4 a!4 q!3 b!2 r!1 r!1)) (* p!5 a!4 a!4 a!4 q!3 b!2 b!2 r!1 r!1) (* 2 (* p!5 p!5 a!4 a!4 a!4 a!4 a!4 r!1 s!0)) (* (- 4) (* p!5 p!5 a!4 a!4 a!4 a!4 b!2 r!1 s!0)) (* 2 (* p!5 p!5 a!4 a!4 a!4 b!2 b!2 r!1 s!0)) (* (- 2) (* p!5 a!4 a!4 a!4 a!4 a!4 q!3 r!1 s!0)) (* 4 (* p!5 a!4 a!4 a!4 a!4 q!3 b!2 r!1 s!0)) (* (- 2) (* p!5 a!4 a!4 a!4 q!3 b!2 b!2 r!1 s!0)) (* (- 1) (* p!5 p!5 a!4 a!4 a!4 a!4 a!4 s!0 s!0)) (* 2 (* p!5 p!5 a!4 a!4 a!4 a!4 b!2 s!0 s!0)) (* (- 1) (* p!5 p!5 a!4 a!4 a!4 b!2 b!2 s!0 s!0)) (* p!5 a!4 a!4 a!4 a!4 a!4 q!3 s!0 s!0) (* (- 2) (* p!5 a!4 a!4 a!4 a!4 q!3 b!2 s!0 s!0)) (* (- 1) (* p!5 p!5 p!5 a!4 a!4 a!4)) (* 2 (* p!5 p!5 p!5 a!4 a!4 b!2)) (* p!5 p!5 a!4 a!4 r!1 r!1) (* (- 1) (* p!5 p!5 a!4 b!2 r!1 r!1)) (* (- 2) (* p!5 p!5 a!4 a!4 r!1 s!0)) (* 2 (* p!5 p!5 a!4 b!2 r!1 s!0)) (* p!5 p!5 a!4 a!4 s!0 s!0))))
 (let ((?x2498 (+ ?x2233 ?x149 ?x41 ?x2497)))
 (let ((?x666 (* q!3 b!2 b!2 b!2 b!2 s!0 s!0 s!0 s!0 s!0 s!0)))
 (let ((?x1218 (* a!4 q!3 b!2 b!2 b!2 s!0 s!0 s!0 s!0 s!0 s!0)))
 (let ((?x1334 (* a!4 a!4 q!3 b!2 b!2 s!0 s!0 s!0 s!0 s!0 s!0)))
 (let ((?x535 (* a!4 a!4 a!4 q!3 b!2 s!0 s!0 s!0 s!0 s!0 s!0)))
 (let ((?x525 (* q!3 b!2 b!2 b!2 b!2 r!1 s!0 s!0 s!0 s!0 s!0)))
 (let ((?x448 (* a!4 q!3 b!2 b!2 b!2 r!1 s!0 s!0 s!0 s!0 s!0)))
 (let ((?x2073 (* a!4 a!4 q!3 b!2 b!2 r!1 s!0 s!0 s!0 s!0 s!0)))
 (let ((?x2066 (* a!4 a!4 a!4 q!3 b!2 r!1 s!0 s!0 s!0 s!0 s!0)))
 (let ((?x1354 (* q!3 b!2 b!2 b!2 b!2 r!1 r!1 s!0 s!0 s!0 s!0)))
 (let ((?x1292 (* a!4 q!3 b!2 b!2 b!2 r!1 r!1 s!0 s!0 s!0 s!0)))
 (let ((?x1346 (* a!4 a!4 q!3 b!2 b!2 r!1 r!1 s!0 s!0 s!0 s!0)))
 (let ((?x1561 (* a!4 a!4 a!4 q!3 b!2 r!1 r!1 s!0 s!0 s!0 s!0)))
 (let ((?x1599 (* q!3 b!2 b!2 b!2 b!2 r!1 r!1 r!1 s!0 s!0 s!0)))
 (let ((?x1592 (* a!4 q!3 b!2 b!2 b!2 r!1 r!1 r!1 s!0 s!0 s!0)))
 (let ((?x1928 (* a!4 a!4 q!3 b!2 b!2 r!1 r!1 r!1 s!0 s!0 s!0)))
 (let ((?x935 (+ ?x1883 (* (- 3) (* p!5 p!5 q!3 q!3 b!2 s!0 s!0 s!0)) (* 3 (* p!5 q!3 q!3 q!3 b!2 s!0 s!0 s!0)) (* (- 1) (* q!3 q!3 q!3 q!3 b!2 s!0 s!0 s!0)) ?x2026 (* (- 3) ?x1928) (* 3 ?x1592) (* (- 1) ?x1599) (* (- 3) ?x1561) (* 9 ?x1346) (* (- 9) ?x1292) (* 3 ?x1354) (* 3 ?x2066) (* (- 9) ?x2073) (* 9 ?x448) (* (- 3) ?x525) (* (- 1) ?x535) (* 3 ?x1334) (* (- 3) ?x1218) ?x666 ?x670 (* (- 3) (* p!5 a!4 a!4 q!3 b!2 b!2 b!2 s!0 s!0)) (* 3 (* p!5 a!4 q!3 b!2 b!2 b!2 b!2 s!0 s!0)) (* (- 1) (* p!5 q!3 b!2 b!2 b!2 b!2 b!2 s!0 s!0)) (* (- 1) (* a!4 a!4 a!4 q!3 q!3 b!2 b!2 s!0 s!0)) (* 3 (* a!4 a!4 q!3 q!3 b!2 b!2 b!2 s!0 s!0)) (* (- 3) (* a!4 q!3 q!3 b!2 b!2 b!2 b!2 s!0 s!0)) (* q!3 q!3 b!2 b!2 b!2 b!2 b!2 s!0 s!0) ?x207 (* p!5 p!5 p!5 b!2 b!2 b!2) (* 3 (* p!5 p!5 a!4 q!3 b!2 b!2)) (* (- 3) (* p!5 p!5 q!3 b!2 b!2 b!2)) (* (- 3) (* p!5 a!4 q!3 q!3 b!2 b!2)) (* 3 (* p!5 q!3 q!3 b!2 b!2 b!2)) (* a!4 q!3 q!3 q!3 b!2 b!2) (* (- 1) (* q!3 q!3 q!3 b!2 b!2 b!2)) ?x1687 (* p!5 p!5 b!2 b!2 s!0 s!0) (* 2 (* p!5 a!4 q!3 b!2 s!0 s!0)) (* (- 2) (* p!5 q!3 b!2 b!2 s!0 s!0)) (* (- 1) (* a!4 q!3 q!3 b!2 s!0 s!0)) (* q!3 q!3 b!2 b!2 s!0 s!0))))
 (let ((?x327 (+ (* b!2 q00 r00) (* (- 1) (* b!2 p00 s00)) (* s!0 p00 b00) (* (- 1) (* q!3 r00 b00)) (* q!3 s00 a00) (* (- 1) (* s!0 q00 a00)))))
 (let ((?x1890 (+ (* a!4 p00 s00) (* (- 1) (* a!4 q00 r00)) (* p!5 r00 b00) (* (- 1) (* r!1 p00 b00)) (* (- 1) (* p!5 s00 a00)) (* r!1 q00 a00))))
 (let ((?x145 (* p00 b00)))
 (let ((?x188 (* (- 1) ?x144)))
 (let (($x2439 (= (+ (* a!4 s!0) (* (- 1) ?x504) (* (- 1) ?x140) (* r00 b00)) 0)))
 (let (($x367 (and (= ?x2498 0) $x2439 (= (+ (* a!4 q!3) ?x188 ?x145 (* (- 1) (* p!5 b!2))) 0) (= ?x1890 0) (= ?x327 0) (or (not (= (* ?x2498 ?x935) 0)) (not (= (* ?x2498 ?x1556) 0))))))
 (let (($x2266 (exists ((p Int) (a Int) (q Int) (b Int) (r Int) (s Int) )(! (let ((?x2088 (* (- 1) (* a a a a q r r r s s s))))
 (let ((?x2084 (* (- 1) (* p a a a b r r r s s s))))
 (let ((?x2101 (* (- 3) (* a a a q b r r r r s s))))
 (let ((?x2100 (* 3 (* a a a a q r r r r s s))))
 (let ((?x2099 (* 3 (* p a a a b r r r r s s))))
 (let ((?x2098 (* (- 3) (* p a a a a r r r r s s))))
 (let ((?x2097 (* 3 (* a a a q b r r r r r s))))
 (let ((?x2096 (* (- 3) (* a a a a q r r r r r s))))
 (let ((?x2095 (* (- 3) (* p a a a b r r r r r s))))
 (let ((?x2094 (* 3 (* p a a a a r r r r r s))))
 (let ((?x1885 (* (- 1) (* a a a q b r r r r r r))))
 (let ((?x1864 (* (- 1) (* p a a a a r r r r r r))))
 (let ((?x1495 (* (- 1) (* p p a b s s))))
 (let ((?x1368 (* (- 1) (* p p p a b b))))
 (let ((?x1057 (* p a a a q b b s s)))
 (let ((?x516 (* a a a q b r r r s s s)))
 (let ((?x365 (* p p p q b s s s)))
 (let ((?x2624 (+ ?x365 ?x516 ?x1057 ?x1368 ?x1495 (* (- 1) (* p p p p a r r r)) (* p p p p b r r r) (* p p p a q r r r) (* (- 1) (* p p p q b r r r)) (* 3 (* p p p p a r r s)) (* (- 3) (* p p p p b r r s)) (* (- 3) (* p p p a q r r s)) (* 3 (* p p p q b r r s)) (* (- 3) (* p p p p a r s s)) (* 3 (* p p p p b r s s)) (* 3 (* p p p a q r s s)) (* (- 3) (* p p p q b r s s)) (* p p p p a s s s) (* (- 1) (* p p p p b s s s)) (* (- 1) (* p p p a q s s s)) ?x1864 (* p a a a b r r r r r r) (* a a a a q r r r r r r) ?x1885 ?x2094 ?x2095 ?x2096 ?x2097 ?x2098 ?x2099 ?x2100 ?x2101 (* p a a a a r r r s s s) ?x2084 ?x2088 (* (- 1) (* p p a a a a a r r)) (* 2 (* p p a a a a b r r)) (* (- 1) (* p p a a a b b r r)) (* p a a a a a q r r) (* (- 2) (* p a a a a q b r r)) (* p a a a q b b r r) (* 2 (* p p a a a a a r s)) (* (- 4) (* p p a a a a b r s)) (* 2 (* p p a a a b b r s)) (* (- 2) (* p a a a a a q r s)) (* 4 (* p a a a a q b r s)) (* (- 2) (* p a a a q b b r s)) (* (- 1) (* p p a a a a a s s)) (* 2 (* p p a a a a b s s)) (* (- 1) (* p p a a a b b s s)) (* p a a a a a q s s) (* (- 2) (* p a a a a q b s s)) (* (- 1) (* p p p a a a)) (* 2 (* p p p a a b)) (* p p a a r r) (* (- 1) (* p p a b r r)) (* (- 2) (* p p a a r s)) (* 2 (* p p a b r s)) (* p p a a s s))))
 (let ((?x133 (* (- 1) (* q r))))
 (let ((?x41 (* q00 r00)))
 (let ((?x37 (* p00 s00)))
 (let ((?x149 (* (- 1) ?x37)))
 (let ((?x33 (* p s)))
 (let ((?x163 (+ ?x33 ?x149 ?x41 ?x133)))
 (let ((?x1025 (* (- 3) (* a q b b b s s s s s s))))
 (let ((?x1024 (* 3 (* a a q b b s s s s s s))))
 (let ((?x950 (* (- 1) (* a a a q b s s s s s s))))
 (let ((?x1023 (* (- 3) (* q b b b b r s s s s s))))
 (let ((?x1022 (* 9 (* a q b b b r s s s s s))))
 (let ((?x1021 (* (- 9) (* a a q b b r s s s s s))))
 (let ((?x1020 (* 3 (* a a a q b r s s s s s))))
 (let ((?x1019 (* 3 (* q b b b b r r s s s s))))
 (let ((?x1018 (* (- 9) (* a q b b b r r s s s s))))
 (let ((?x1016 (* 9 (* a a q b b r r s s s s))))
 (let ((?x1014 (* (- 3) (* a a a q b r r s s s s))))
 (let ((?x568 (* (- 1) (* q b b b b r r r s s s))))
 (let ((?x1013 (* 3 (* a q b b b r r r s s s))))
 (let ((?x1012 (* (- 3) (* a a q b b r r r s s s))))
 (let ((?x1508 (+ ?x365 (* (- 3) (* p p q q b s s s)) (* 3 (* p q q q b s s s)) (* (- 1) (* q q q q b s s s)) ?x516 ?x1012 ?x1013 ?x568 ?x1014 ?x1016 ?x1018 ?x1019 ?x1020 ?x1021 ?x1022 ?x1023 ?x950 ?x1024 ?x1025 (* q b b b b s s s s s s) ?x1057 (* (- 3) (* p a a q b b b s s)) (* 3 (* p a q b b b b s s)) (* (- 1) (* p q b b b b b s s)) (* (- 1) (* a a a q q b b s s)) (* 3 (* a a q q b b b s s)) (* (- 3) (* a q q b b b b s s)) (* q q b b b b b s s) ?x1368 (* p p p b b b) (* 3 (* p p a q b b)) (* (- 3) (* p p q b b b)) (* (- 3) (* p a q q b b)) (* 3 (* p q q b b b)) (* a q q q b b) (* (- 1) (* q q q b b b)) ?x1495 (* p p b b s s) (* 2 (* p a q b s s)) (* (- 2) (* p q b b s s)) (* (- 1) (* a q q b s s)) (* q q b b s s))))
 (let ((?x72 (* b q00 r00)))
 (let ((?x320 (+ ?x72 (* (- 1) (* b p00 s00)) (* s p00 b00) (* (- 1) (* q r00 b00)) (* q s00 a00) (* (- 1) (* s q00 a00)))))
 (let (($x325 (= ?x320 0)))
 (let ((?x63 (* a p00 s00)))
 (let ((?x256 (+ ?x63 (* (- 1) (* a q00 r00)) (* p r00 b00) (* (- 1) (* r p00 b00)) (* (- 1) (* p s00 a00)) (* r q00 a00))))
 (let (($x257 (= ?x256 0)))
 (let ((?x145 (* p00 b00)))
 (let ((?x144 (* q00 a00)))
 (let ((?x188 (* (- 1) ?x144)))
 (let (($x191 (= (+ (* a q) ?x188 ?x145 (* (- 1) (* p b))) 0)))
 (let ((?x158 (* r00 b00)))
 (let ((?x140 (* s00 a00)))
 (let ((?x147 (* (- 1) ?x140)))
 (let ((?x49 (* a s)))
 (let (($x173 (= (+ ?x49 (* (- 1) (* b r)) ?x147 ?x158) 0)))
 (let (($x168 (= ?x163 0)))
 (and $x168 $x173 $x191 $x257 $x325 (or (not (= (* ?x163 ?x1508) 0)) (not (= (* ?x163 ?x2624) 0))))))))))))))))))))))))))))))))))))))))))))))))))))))))))) :qid k!39))
 ))
 (let (($x1239 (exists ((p Int) (a Int) (q Int) (b Int) (r Int) (s Int) )(! (let ((?x1241 (+ b (* (- 1) a))))
 (let ((?x2170 (+ s (* (- 1) r))))
 (let ((?x350 (* (- 1) p)))
 (let ((?x2207 (+ q ?x350)))
 (let ((?x2262 (+ (* ?x2170 ?x2170 ?x2170 ?x1241 ?x2207 p p p) (* ?x2170 ?x2170 ?x2170 ?x1241 ?x2207 r r r a a a) (* ?x2170 ?x2170 ?x1241 ?x1241 ?x2207 a a a p) (* (- 1) (* ?x1241 ?x1241 a p p p)) (* (- 1) (* ?x2170 ?x2170 ?x1241 a p p)))))
 (let ((?x41 (* q00 r00)))
 (let ((?x37 (* p00 s00)))
 (let ((?x149 (* (- 1) ?x37)))
 (let (($x2123 (= (* (+ (* (- 1) (* ?x2207 r)) (* ?x2170 p) ?x149 ?x41) ?x2262) 0)))
 (let ((?x1963 (+ p (* (- 1) q))))
 (let ((?x2182 (+ a (* (- 1) b))))
 (let ((?x266 (* (- 1) s)))
 (let ((?x746 (+ r ?x266)))
 (let ((?x2223 (+ (* ?x1963 ?x1963 ?x1963 s s s b q) (* ?x746 ?x746 ?x746 ?x2182 ?x2182 ?x2182 s s s b q) (* ?x2182 ?x2182 ?x2182 ?x1963 s s b b q) (* (- 1) (* ?x2182 ?x1963 ?x1963 ?x1963 b b)) (* (- 1) (* ?x2182 ?x1963 ?x1963 s s b)))))
 (let (($x2203 (= (* (+ (* (- 1) (* ?x746 q)) (* ?x1963 s) ?x149 ?x41) ?x2223) 0)))
 (let (($x2244 (or (not $x2203) (not $x2123))))
 (let ((?x73 (* b00 p00 s)))
 (let ((?x2172 (+ (* q00 r00 b) ?x73 (* (- 1) (* b00 r00 q)) (* (- 1) (* p00 s00 b)) (* a00 s00 q) (* (- 1) (* a00 q00 s)))))
 (let (($x2176 (= ?x2172 0)))
 (let ((?x69 (* a00 q00 r)))
 (let ((?x2633 (* p00 s00 a)))
 (let ((?x1954 (* b00 r00 p)))
 (let ((?x2154 (+ ?x1954 ?x2633 (* (- 1) (* b00 p00 r)) (* (- 1) (* q00 r00 a)) (* (- 1) (* a00 s00 p)) ?x69)))
 (let ((?x57 (* b00 p00)))
 (let ((?x1397 (* q a)))
 (let (($x1380 (= (+ ?x1397 (* (- 1) (* a00 q00)) ?x57 (* (- 1) (* b p))) 0)))
 (let ((?x47 (* a00 s00)))
 (let ((?x1222 (* r b)))
 (let (($x2157 (= (+ ?x1222 ?x47 (* (- 1) (* s a)) (* (- 1) (* b00 r00))) 0)))
 (let (($x1989 (= (+ (* r q) (* (- 1) (* s p)) ?x37 (* (- 1) ?x41)) 0)))
 (and $x1989 $x2157 $x1380 (= ?x2154 0) $x2176 $x2244))))))))))))))))))))))))))))))) :qid k!39))
 ))
 (let ((?x2216 (lambda ((p Int) (a Int) (q Int) (b Int) (r Int) (s Int) )(let ((?x2088 (* (- 1) (* a a a a q r r r s s s))))
 (let ((?x2084 (* (- 1) (* p a a a b r r r s s s))))
 (let ((?x2101 (* (- 3) (* a a a q b r r r r s s))))
 (let ((?x2100 (* 3 (* a a a a q r r r r s s))))
 (let ((?x2099 (* 3 (* p a a a b r r r r s s))))
 (let ((?x2098 (* (- 3) (* p a a a a r r r r s s))))
 (let ((?x2097 (* 3 (* a a a q b r r r r r s))))
 (let ((?x2096 (* (- 3) (* a a a a q r r r r r s))))
 (let ((?x2095 (* (- 3) (* p a a a b r r r r r s))))
 (let ((?x2094 (* 3 (* p a a a a r r r r r s))))
 (let ((?x1885 (* (- 1) (* a a a q b r r r r r r))))
 (let ((?x1864 (* (- 1) (* p a a a a r r r r r r))))
 (let ((?x1495 (* (- 1) (* p p a b s s))))
 (let ((?x1368 (* (- 1) (* p p p a b b))))
 (let ((?x1057 (* p a a a q b b s s)))
 (let ((?x516 (* a a a q b r r r s s s)))
 (let ((?x365 (* p p p q b s s s)))
 (let ((?x2624 (+ ?x365 ?x516 ?x1057 ?x1368 ?x1495 (* (- 1) (* p p p p a r r r)) (* p p p p b r r r) (* p p p a q r r r) (* (- 1) (* p p p q b r r r)) (* 3 (* p p p p a r r s)) (* (- 3) (* p p p p b r r s)) (* (- 3) (* p p p a q r r s)) (* 3 (* p p p q b r r s)) (* (- 3) (* p p p p a r s s)) (* 3 (* p p p p b r s s)) (* 3 (* p p p a q r s s)) (* (- 3) (* p p p q b r s s)) (* p p p p a s s s) (* (- 1) (* p p p p b s s s)) (* (- 1) (* p p p a q s s s)) ?x1864 (* p a a a b r r r r r r) (* a a a a q r r r r r r) ?x1885 ?x2094 ?x2095 ?x2096 ?x2097 ?x2098 ?x2099 ?x2100 ?x2101 (* p a a a a r r r s s s) ?x2084 ?x2088 (* (- 1) (* p p a a a a a r r)) (* 2 (* p p a a a a b r r)) (* (- 1) (* p p a a a b b r r)) (* p a a a a a q r r) (* (- 2) (* p a a a a q b r r)) (* p a a a q b b r r) (* 2 (* p p a a a a a r s)) (* (- 4) (* p p a a a a b r s)) (* 2 (* p p a a a b b r s)) (* (- 2) (* p a a a a a q r s)) (* 4 (* p a a a a q b r s)) (* (- 2) (* p a a a q b b r s)) (* (- 1) (* p p a a a a a s s)) (* 2 (* p p a a a a b s s)) (* (- 1) (* p p a a a b b s s)) (* p a a a a a q s s) (* (- 2) (* p a a a a q b s s)) (* (- 1) (* p p p a a a)) (* 2 (* p p p a a b)) (* p p a a r r) (* (- 1) (* p p a b r r)) (* (- 2) (* p p a a r s)) (* 2 (* p p a b r s)) (* p p a a s s))))
 (let ((?x133 (* (- 1) (* q r))))
 (let ((?x41 (* q00 r00)))
 (let ((?x37 (* p00 s00)))
 (let ((?x149 (* (- 1) ?x37)))
 (let ((?x33 (* p s)))
 (let ((?x163 (+ ?x33 ?x149 ?x41 ?x133)))
 (let ((?x1025 (* (- 3) (* a q b b b s s s s s s))))
 (let ((?x1024 (* 3 (* a a q b b s s s s s s))))
 (let ((?x950 (* (- 1) (* a a a q b s s s s s s))))
 (let ((?x1023 (* (- 3) (* q b b b b r s s s s s))))
 (let ((?x1022 (* 9 (* a q b b b r s s s s s))))
 (let ((?x1021 (* (- 9) (* a a q b b r s s s s s))))
 (let ((?x1020 (* 3 (* a a a q b r s s s s s))))
 (let ((?x1019 (* 3 (* q b b b b r r s s s s))))
 (let ((?x1018 (* (- 9) (* a q b b b r r s s s s))))
 (let ((?x1016 (* 9 (* a a q b b r r s s s s))))
 (let ((?x1014 (* (- 3) (* a a a q b r r s s s s))))
 (let ((?x568 (* (- 1) (* q b b b b r r r s s s))))
 (let ((?x1013 (* 3 (* a q b b b r r r s s s))))
 (let ((?x1012 (* (- 3) (* a a q b b r r r s s s))))
 (let ((?x1508 (+ ?x365 (* (- 3) (* p p q q b s s s)) (* 3 (* p q q q b s s s)) (* (- 1) (* q q q q b s s s)) ?x516 ?x1012 ?x1013 ?x568 ?x1014 ?x1016 ?x1018 ?x1019 ?x1020 ?x1021 ?x1022 ?x1023 ?x950 ?x1024 ?x1025 (* q b b b b s s s s s s) ?x1057 (* (- 3) (* p a a q b b b s s)) (* 3 (* p a q b b b b s s)) (* (- 1) (* p q b b b b b s s)) (* (- 1) (* a a a q q b b s s)) (* 3 (* a a q q b b b s s)) (* (- 3) (* a q q b b b b s s)) (* q q b b b b b s s) ?x1368 (* p p p b b b) (* 3 (* p p a q b b)) (* (- 3) (* p p q b b b)) (* (- 3) (* p a q q b b)) (* 3 (* p q q b b b)) (* a q q q b b) (* (- 1) (* q q q b b b)) ?x1495 (* p p b b s s) (* 2 (* p a q b s s)) (* (- 2) (* p q b b s s)) (* (- 1) (* a q q b s s)) (* q q b b s s))))
 (let ((?x72 (* b q00 r00)))
 (let ((?x320 (+ ?x72 (* (- 1) (* b p00 s00)) (* s p00 b00) (* (- 1) (* q r00 b00)) (* q s00 a00) (* (- 1) (* s q00 a00)))))
 (let (($x325 (= ?x320 0)))
 (let ((?x63 (* a p00 s00)))
 (let ((?x256 (+ ?x63 (* (- 1) (* a q00 r00)) (* p r00 b00) (* (- 1) (* r p00 b00)) (* (- 1) (* p s00 a00)) (* r q00 a00))))
 (let (($x257 (= ?x256 0)))
 (let ((?x145 (* p00 b00)))
 (let ((?x144 (* q00 a00)))
 (let ((?x188 (* (- 1) ?x144)))
 (let (($x191 (= (+ (* a q) ?x188 ?x145 (* (- 1) (* p b))) 0)))
 (let ((?x158 (* r00 b00)))
 (let ((?x140 (* s00 a00)))
 (let ((?x147 (* (- 1) ?x140)))
 (let ((?x49 (* a s)))
 (let (($x173 (= (+ ?x49 (* (- 1) (* b r)) ?x147 ?x158) 0)))
 (let (($x168 (= ?x163 0)))
 (let (($x2670 (and $x168 $x173 $x191 $x257 $x325 (or (not (= (* ?x163 ?x1508) 0)) (not (= (* ?x163 ?x2624) 0))))))
 (let ((?x1241 (+ b (* (- 1) a))))
 (let ((?x2170 (+ s (* (- 1) r))))
 (let ((?x350 (* (- 1) p)))
 (let ((?x2207 (+ q ?x350)))
 (let ((?x2262 (+ (* ?x2170 ?x2170 ?x2170 ?x1241 ?x2207 p p p) (* ?x2170 ?x2170 ?x2170 ?x1241 ?x2207 r r r a a a) (* ?x2170 ?x2170 ?x1241 ?x1241 ?x2207 a a a p) (* (- 1) (* ?x1241 ?x1241 a p p p)) (* (- 1) (* ?x2170 ?x2170 ?x1241 a p p)))))
 (let (($x2123 (= (* (+ (* (- 1) (* ?x2207 r)) (* ?x2170 p) ?x149 ?x41) ?x2262) 0)))
 (let ((?x1963 (+ p (* (- 1) q))))
 (let ((?x2182 (+ a (* (- 1) b))))
 (let ((?x266 (* (- 1) s)))
 (let ((?x746 (+ r ?x266)))
 (let ((?x2223 (+ (* ?x1963 ?x1963 ?x1963 s s s b q) (* ?x746 ?x746 ?x746 ?x2182 ?x2182 ?x2182 s s s b q) (* ?x2182 ?x2182 ?x2182 ?x1963 s s b b q) (* (- 1) (* ?x2182 ?x1963 ?x1963 ?x1963 b b)) (* (- 1) (* ?x2182 ?x1963 ?x1963 s s b)))))
 (let (($x2203 (= (* (+ (* (- 1) (* ?x746 q)) (* ?x1963 s) ?x149 ?x41) ?x2223) 0)))
 (let (($x2244 (or (not $x2203) (not $x2123))))
 (let ((?x73 (* b00 p00 s)))
 (let ((?x2172 (+ (* q00 r00 b) ?x73 (* (- 1) (* b00 r00 q)) (* (- 1) (* p00 s00 b)) (* a00 s00 q) (* (- 1) (* a00 q00 s)))))
 (let (($x2176 (= ?x2172 0)))
 (let ((?x69 (* a00 q00 r)))
 (let ((?x2633 (* p00 s00 a)))
 (let ((?x1954 (* b00 r00 p)))
 (let ((?x2154 (+ ?x1954 ?x2633 (* (- 1) (* b00 p00 r)) (* (- 1) (* q00 r00 a)) (* (- 1) (* a00 s00 p)) ?x69)))
 (let ((?x57 (* b00 p00)))
 (let ((?x1397 (* q a)))
 (let (($x1380 (= (+ ?x1397 (* (- 1) (* a00 q00)) ?x57 (* (- 1) (* b p))) 0)))
 (let ((?x47 (* a00 s00)))
 (let ((?x1222 (* r b)))
 (let (($x2157 (= (+ ?x1222 ?x47 (* (- 1) (* s a)) (* (- 1) (* b00 r00))) 0)))
 (let (($x1989 (= (+ (* r q) (* (- 1) (* s p)) ?x37 (* (- 1) ?x41)) 0)))
 (let (($x2537 (and $x1989 $x2157 $x1380 (= ?x2154 0) $x2176 $x2244)))
 (rewrite (= $x2537 $x2670)))))))))))))))))))))))))))))))))))))))))))))))))))))))))))))))))))))))))))))))))))))))
 ))
 (let (($x2234 (exists ((p Int) (a Int) (q Int) (b Int) (r Int) (s Int) )(! (let ((?x1241 (+ b (* (- 1) a))))
 (let ((?x2170 (+ s (* (- 1) r))))
 (let ((?x350 (* (- 1) p)))
 (let ((?x2207 (+ q ?x350)))
 (let ((?x2262 (+ (* ?x2170 ?x2170 ?x2170 ?x1241 ?x2207 p p p) (* ?x2170 ?x2170 ?x2170 ?x1241 ?x2207 r r r a a a) (* ?x2170 ?x2170 ?x1241 ?x1241 ?x2207 a a a p) (* (- 1) (* ?x1241 ?x1241 a p p p)) (* (- 1) (* ?x2170 ?x2170 ?x1241 a p p)))))
 (let ((?x41 (* q00 r00)))
 (let ((?x37 (* p00 s00)))
 (let ((?x149 (* (- 1) ?x37)))
 (let (($x2123 (= (* (+ (* (- 1) (* ?x2207 r)) (* ?x2170 p) ?x149 ?x41) ?x2262) 0)))
 (let ((?x1963 (+ p (* (- 1) q))))
 (let ((?x2182 (+ a (* (- 1) b))))
 (let ((?x266 (* (- 1) s)))
 (let ((?x746 (+ r ?x266)))
 (let ((?x2223 (+ (* ?x1963 ?x1963 ?x1963 s s s b q) (* ?x746 ?x746 ?x746 ?x2182 ?x2182 ?x2182 s s s b q) (* ?x2182 ?x2182 ?x2182 ?x1963 s s b b q) (* (- 1) (* ?x2182 ?x1963 ?x1963 ?x1963 b b)) (* (- 1) (* ?x2182 ?x1963 ?x1963 s s b)))))
 (let (($x2203 (= (* (+ (* (- 1) (* ?x746 q)) (* ?x1963 s) ?x149 ?x41) ?x2223) 0)))
 (let (($x2244 (or (not $x2203) (not $x2123))))
 (let ((?x73 (* b00 p00 s)))
 (let ((?x2172 (+ (* q00 r00 b) ?x73 (* (- 1) (* b00 r00 q)) (* (- 1) (* p00 s00 b)) (* a00 s00 q) (* (- 1) (* a00 q00 s)))))
 (let (($x2176 (= ?x2172 0)))
 (let ((?x2003 (* a00 s00 p)))
 (let ((?x1997 (* q00 r00 a)))
 (let ((?x65 (* b00 p00 r)))
 (let ((?x994 (+ (* (- 1) (* b00 r00 p)) (* (- 1) (* p00 s00 a)) ?x65 ?x1997 ?x2003 (* (- 1) (* a00 q00 r)))))
 (let ((?x59 (* b p)))
 (let ((?x55 (* a00 q00)))
 (let (($x1446 (= (+ (* (- 1) (* q a)) ?x55 (* (- 1) (* b00 p00)) ?x59) 0)))
 (let ((?x51 (* b00 r00)))
 (let ((?x2614 (* s a)))
 (let (($x1055 (= (+ (* (- 1) (* r b)) (* (- 1) (* a00 s00)) ?x2614 ?x51) 0)))
 (and (= (+ (* (- 1) (* r q)) (* s p) ?x149 ?x41) 0) $x1055 $x1446 (= ?x994 0) $x2176 $x2244)))))))))))))))))))))))))))))) :qid k!39))
 ))
 (let ((?x2630 (lambda ((p Int) (a Int) (q Int) (b Int) (r Int) (s Int) )(let ((?x1241 (+ b (* (- 1) a))))
 (let ((?x2170 (+ s (* (- 1) r))))
 (let ((?x350 (* (- 1) p)))
 (let ((?x2207 (+ q ?x350)))
 (let ((?x2262 (+ (* ?x2170 ?x2170 ?x2170 ?x1241 ?x2207 p p p) (* ?x2170 ?x2170 ?x2170 ?x1241 ?x2207 r r r a a a) (* ?x2170 ?x2170 ?x1241 ?x1241 ?x2207 a a a p) (* (- 1) (* ?x1241 ?x1241 a p p p)) (* (- 1) (* ?x2170 ?x2170 ?x1241 a p p)))))
 (let ((?x41 (* q00 r00)))
 (let ((?x37 (* p00 s00)))
 (let ((?x149 (* (- 1) ?x37)))
 (let (($x2123 (= (* (+ (* (- 1) (* ?x2207 r)) (* ?x2170 p) ?x149 ?x41) ?x2262) 0)))
 (let ((?x1963 (+ p (* (- 1) q))))
 (let ((?x2182 (+ a (* (- 1) b))))
 (let ((?x266 (* (- 1) s)))
 (let ((?x746 (+ r ?x266)))
 (let ((?x2223 (+ (* ?x1963 ?x1963 ?x1963 s s s b q) (* ?x746 ?x746 ?x746 ?x2182 ?x2182 ?x2182 s s s b q) (* ?x2182 ?x2182 ?x2182 ?x1963 s s b b q) (* (- 1) (* ?x2182 ?x1963 ?x1963 ?x1963 b b)) (* (- 1) (* ?x2182 ?x1963 ?x1963 s s b)))))
 (let (($x2203 (= (* (+ (* (- 1) (* ?x746 q)) (* ?x1963 s) ?x149 ?x41) ?x2223) 0)))
 (let (($x2244 (or (not $x2203) (not $x2123))))
 (let ((?x73 (* b00 p00 s)))
 (let ((?x2172 (+ (* q00 r00 b) ?x73 (* (- 1) (* b00 r00 q)) (* (- 1) (* p00 s00 b)) (* a00 s00 q) (* (- 1) (* a00 q00 s)))))
 (let (($x2176 (= ?x2172 0)))
 (let ((?x69 (* a00 q00 r)))
 (let ((?x2633 (* p00 s00 a)))
 (let ((?x1954 (* b00 r00 p)))
 (let ((?x2154 (+ ?x1954 ?x2633 (* (- 1) (* b00 p00 r)) (* (- 1) (* q00 r00 a)) (* (- 1) (* a00 s00 p)) ?x69)))
 (let ((?x57 (* b00 p00)))
 (let ((?x1397 (* q a)))
 (let (($x1380 (= (+ ?x1397 (* (- 1) (* a00 q00)) ?x57 (* (- 1) (* b p))) 0)))
 (let ((?x47 (* a00 s00)))
 (let ((?x1222 (* r b)))
 (let (($x2157 (= (+ ?x1222 ?x47 (* (- 1) (* s a)) (* (- 1) (* b00 r00))) 0)))
 (let (($x1989 (= (+ (* r q) (* (- 1) (* s p)) ?x37 (* (- 1) ?x41)) 0)))
 (let (($x2537 (and $x1989 $x2157 $x1380 (= ?x2154 0) $x2176 $x2244)))
 (let ((?x2003 (* a00 s00 p)))
 (let ((?x1997 (* q00 r00 a)))
 (let ((?x65 (* b00 p00 r)))
 (let (($x1994 (= (+ (* (- 1) ?x1954) (* (- 1) ?x2633) ?x65 ?x1997 ?x2003 (* (- 1) ?x69)) 0)))
 (let (($x1446 (= (+ (* (- 1) ?x1397) (* a00 q00) (* (- 1) ?x57) (* b p)) 0)))
 (let (($x1055 (= (+ (* (- 1) ?x1222) (* (- 1) ?x47) (* s a) (* b00 r00)) 0)))
 (let (($x2270 (and (= (+ (* (- 1) (* r q)) (* s p) ?x149 ?x41) 0) $x1055 $x1446 $x1994 $x2176 $x2244)))
 (rewrite (= $x2270 $x2537)))))))))))))))))))))))))))))))))))))))))
 ))
 (let (($x124 (exists ((p Int) (a Int) (q Int) (b Int) (r Int) (s Int) )(! (let ((?x105 (- s r)))
 (let ((?x103 (- q p)))
 (let ((?x110 (- b a)))
 (let ((?x114 (+ (* ?x110 p p p ?x103 ?x105 ?x105 ?x105) (* a a a ?x110 ?x103 r r r ?x105 ?x105 ?x105) (* a a a ?x110 ?x110 p ?x103 ?x105 ?x105))))
 (let ((?x118 (- (- ?x114 (* a ?x110 ?x110 p p p)) (* a ?x110 p p ?x105 ?x105))))
 (let ((?x41 (* q00 r00)))
 (let ((?x109 (+ (- (+ (* (- 1) ?x103 r) (* p ?x105)) (* p00 s00)) ?x41)))
 (let ((?x86 (- p q)))
 (let ((?x92 (- a b)))
 (let ((?x84 (- r s)))
 (let ((?x95 (+ (* b ?x86 ?x86 ?x86 q s s s) (* ?x92 ?x92 ?x92 b q ?x84 ?x84 ?x84 s s s) (* ?x92 ?x92 ?x92 b b ?x86 q s s))))
 (let ((?x99 (- (- ?x95 (* ?x92 b b ?x86 ?x86 ?x86)) (* ?x92 b ?x86 ?x86 s s))))
 (let ((?x90 (+ (- (+ (* (- 1) q ?x84) (* ?x86 s)) (* p00 s00)) ?x41)))
 (let ((?x81 (* a00 q00 s)))
 (let ((?x76 (* b p00 s00)))
 (let ((?x77 (- (+ (* b q00 r00) (* b00 p00 s)) (* b00 q r00))))
 (let ((?x69 (* a00 q00 r)))
 (let ((?x66 (* a q00 r00)))
 (let ((?x65 (* b00 p00 r)))
 (let ((?x68 (+ (- (* (- 1) b00 p r00) (* a p00 s00)) ?x65 ?x66 (* a00 p s00))))
 (let ((?x59 (* b p)))
 (let ((?x60 (+ (- (+ (* (- 1) a q) (* a00 q00)) (* b00 p00)) ?x59)))
 (let ((?x51 (* b00 r00)))
 (let ((?x49 (* a s)))
 (let (($x53 (= (+ (- (* (- 1) b r) (* a00 s00)) ?x49 ?x51) 0)))
 (let ((?x42 (+ (- (+ (* (- 1) q r) (* p s)) (* p00 s00)) ?x41)))
 (and (= ?x42 0) $x53 (= ?x60 0) (= (- ?x68 ?x69) 0) (= (- (+ (- ?x77 ?x76) (* a00 q s00)) ?x81) 0) (or (not (= (* ?x90 ?x99) 0)) (not (= (* ?x109 ?x118) 0)))))))))))))))))))))))))))))) :qid k!39))
 ))
 (let ((?x2241 (lambda ((p Int) (a Int) (q Int) (b Int) (r Int) (s Int) )(let ((?x1241 (+ b (* (- 1) a))))
 (let ((?x2170 (+ s (* (- 1) r))))
 (let ((?x350 (* (- 1) p)))
 (let ((?x2207 (+ q ?x350)))
 (let ((?x2262 (+ (* ?x2170 ?x2170 ?x2170 ?x1241 ?x2207 p p p) (* ?x2170 ?x2170 ?x2170 ?x1241 ?x2207 r r r a a a) (* ?x2170 ?x2170 ?x1241 ?x1241 ?x2207 a a a p) (* (- 1) (* ?x1241 ?x1241 a p p p)) (* (- 1) (* ?x2170 ?x2170 ?x1241 a p p)))))
 (let ((?x41 (* q00 r00)))
 (let ((?x37 (* p00 s00)))
 (let ((?x149 (* (- 1) ?x37)))
 (let (($x2123 (= (* (+ (* (- 1) (* ?x2207 r)) (* ?x2170 p) ?x149 ?x41) ?x2262) 0)))
 (let ((?x1963 (+ p (* (- 1) q))))
 (let ((?x2182 (+ a (* (- 1) b))))
 (let ((?x266 (* (- 1) s)))
 (let ((?x746 (+ r ?x266)))
 (let ((?x2223 (+ (* ?x1963 ?x1963 ?x1963 s s s b q) (* ?x746 ?x746 ?x746 ?x2182 ?x2182 ?x2182 s s s b q) (* ?x2182 ?x2182 ?x2182 ?x1963 s s b b q) (* (- 1) (* ?x2182 ?x1963 ?x1963 ?x1963 b b)) (* (- 1) (* ?x2182 ?x1963 ?x1963 s s b)))))
 (let (($x2203 (= (* (+ (* (- 1) (* ?x746 q)) (* ?x1963 s) ?x149 ?x41) ?x2223) 0)))
 (let (($x2244 (or (not $x2203) (not $x2123))))
 (let ((?x73 (* b00 p00 s)))
 (let ((?x2172 (+ (* q00 r00 b) ?x73 (* (- 1) (* b00 r00 q)) (* (- 1) (* p00 s00 b)) (* a00 s00 q) (* (- 1) (* a00 q00 s)))))
 (let (($x2176 (= ?x2172 0)))
 (let ((?x2003 (* a00 s00 p)))
 (let ((?x1997 (* q00 r00 a)))
 (let ((?x65 (* b00 p00 r)))
 (let ((?x994 (+ (* (- 1) (* b00 r00 p)) (* (- 1) (* p00 s00 a)) ?x65 ?x1997 ?x2003 (* (- 1) (* a00 q00 r)))))
 (let ((?x59 (* b p)))
 (let ((?x55 (* a00 q00)))
 (let (($x1446 (= (+ (* (- 1) (* q a)) ?x55 (* (- 1) (* b00 p00)) ?x59) 0)))
 (let ((?x51 (* b00 r00)))
 (let ((?x2614 (* s a)))
 (let (($x1055 (= (+ (* (- 1) (* r b)) (* (- 1) (* a00 s00)) ?x2614 ?x51) 0)))
 (let (($x2270 (and (= (+ (* (- 1) (* r q)) (* s p) ?x149 ?x41) 0) $x1055 $x1446 (= ?x994 0) $x2176 $x2244)))
 (let ((?x105 (- s r)))
 (let ((?x103 (- q p)))
 (let ((?x110 (- b a)))
 (let ((?x114 (+ (* ?x110 p p p ?x103 ?x105 ?x105 ?x105) (* a a a ?x110 ?x103 r r r ?x105 ?x105 ?x105) (* a a a ?x110 ?x110 p ?x103 ?x105 ?x105))))
 (let ((?x118 (- (- ?x114 (* a ?x110 ?x110 p p p)) (* a ?x110 p p ?x105 ?x105))))
 (let ((?x119 (* (+ (- (+ (* (- 1) ?x103 r) (* p ?x105)) ?x37) ?x41) ?x118)))
 (let ((?x86 (- p q)))
 (let ((?x92 (- a b)))
 (let ((?x84 (- r s)))
 (let ((?x95 (+ (* b ?x86 ?x86 ?x86 q s s s) (* ?x92 ?x92 ?x92 b q ?x84 ?x84 ?x84 s s s) (* ?x92 ?x92 ?x92 b b ?x86 q s s))))
 (let ((?x99 (- (- ?x95 (* ?x92 b b ?x86 ?x86 ?x86)) (* ?x92 b ?x86 ?x86 s s))))
 (let ((?x100 (* (+ (- (+ (* (- 1) q ?x84) (* ?x86 s)) ?x37) ?x41) ?x99)))
 (let ((?x81 (* a00 q00 s)))
 (let ((?x76 (* b p00 s00)))
 (let ((?x80 (+ (- (- (+ (* b q00 r00) ?x73) (* b00 q r00)) ?x76) (* a00 q s00))))
 (let ((?x69 (* a00 q00 r)))
 (let ((?x66 (* a q00 r00)))
 (let ((?x68 (+ (- (* (- 1) b00 p r00) (* a p00 s00)) ?x65 ?x66 (* a00 p s00))))
 (let (($x61 (= (+ (- (+ (* (- 1) a q) ?x55) (* b00 p00)) ?x59) 0)))
 (let (($x53 (= (+ (- (* (- 1) b r) (* a00 s00)) (* a s) ?x51) 0)))
 (let (($x44 (= (+ (- (+ (* (- 1) q r) (* p s)) ?x37) ?x41) 0)))
 (let (($x123 (and $x44 $x53 $x61 (= (- ?x68 ?x69) 0) (= (- ?x80 ?x81) 0) (or (not (= ?x100 0)) (not (= ?x119 0))))))
 (rewrite (= $x123 $x2270)))))))))))))))))))))))))))))))))))))))))))))))))))))))
 ))
 (let ((@x125 (asserted $x124)))
 (let ((@x1001 (mp (mp @x125 (quant-intro (proof-bind ?x2241) (= $x124 $x2234)) $x2234) (rewrite (= $x2234 $x2234)) $x2234)))
 (let ((@x2603 (mp (mp @x1001 (quant-intro (proof-bind ?x2630) (= $x2234 $x1239)) $x1239) (quant-intro (proof-bind ?x2216) (= $x1239 $x2266)) $x2266)))
 (let ((@x1996 (mp (mp~ @x2603 (sk (~ $x2266 $x367)) $x367) (rewrite (= $x367 $x1101)) $x1101)))
 (let ((@x2004 (and-elim @x1996 $x857)))
 (let ((@x1895 (unit-resolution ((_ th-lemma arith triangle-eq) (or (not $x857) $x2076)) @x2004 $x2076)))
 (let (($x2074 (<= ?x852 0)))
 (let ((@x1889 (unit-resolution ((_ th-lemma arith triangle-eq) (or (not $x857) $x2074)) @x2004 $x2074)))
 (let (($x491 (not (<= ?x213 0))))
 (let (($x1876 (>= ?x1037 0)))
 (let (($x1869 (<= ?x1037 0)))
 (let ((@x1941 (unit-resolution ((_ th-lemma arith triangle-eq) (or $x1992 (not $x1869) (not $x1876))) (lemma ((_ th-lemma arith farkas 1 1 1) (hypothesis (not $x1869)) @x1889 @x1895 false) $x1869) (lemma ((_ th-lemma arith farkas 1 1 1) (hypothesis (not $x1876)) @x1889 @x1895 false) $x1876) $x1992)))
 (let (($x1986 (>= ?x213 0)))
 (let ((@x2258 (unit-resolution ((_ th-lemma arith triangle-eq) (or $x1433 $x491 (not $x1986))) (lemma ((_ th-lemma arith farkas 1 1 1) (hypothesis (not $x1986)) @x1889 @x1895 false) $x1986) (unit-resolution (and-elim @x1996 $x1999) @x1941 $x217) $x491)))
 ((_ th-lemma arith farkas 1 1 1) @x2258 @x1889 @x1895 false))))))))))))))))))))))))))))))))))))))))))))))))))))))))))))))))))))))))))))))))))))))))))))))))))))))))))))))))))))))))))))))))))

(:added-eqs                 6
 :arith-assert-diseq        3
 :arith-assert-lower        31
 :arith-assert-upper        18
 :arith-conflicts           4
 :arith-eq-adapter          7
 :arith-fixed-eqs           6
 :arith-max-min             1088
 :arith-nonlinear-bounds    12
 :arith-num-rows            8
 :arith-pivots              5
 :arith-pseudo-nonlinear    8
 :arith-row-summations      1
 :arith-tableau-max-columns 151
 :arith-tableau-max-rows    8
 :conflicts                 4
 :decisions                 7
 :del-clause                15
 :final-checks              4
 :max-memory                3.92
 :memory                    3.31
 :mk-bool-var               27
 :mk-clause                 24
 :num-allocs                1304147
 :num-checks                1
 :propagations              19
 :rlimit-count              12143
 :time                      0.01
 :total-time                0.02)
